data;
set WEIGHTS := x0 x1 x2 x3 x4 x5 x6 x7 x8 x9 x10 x11 x12 x13 x14 x15 x16 x17 x18 x19 x20 x21;
param:  cost :=
  x0  506
  x1  507
  x2  508
  x3  509
  x4  510
  x5  511
  x6  512
  x7  513
  x8  514
  x9  515
  x10  516
  x11  517
  x12  518
  x13  519
  x14  520
  x15  521
  x16  522
  x17  523
  x18  524
  x19  525
  x20  526
  x21  527;
param cap := 5544;